1
1000
249
499 1
498 1
493 1
491 1
489 1
489 1
489 1
488 1
487 1
484 1
480 1
479 1
478 1
472 1
471 1
467 1
466 1
463 1
463 1
463 1
461 1
453 1
450 1
447 1
445 1
444 1
443 1
440 1
438 1
438 1
435 1
433 1
433 1
431 1
425 1
425 1
425 1
422 1
420 1
419 1
418 1
414 1
413 1
412 1
411 1
407 1
405 1
404 1
404 1
403 1
403 1
400 1
399 1
394 1
394 1
389 1
388 1
386 1
385 1
384 1
384 1
382 1
382 1
381 1
381 1
380 1
379 1
379 1
378 1
377 1
376 1
376 1
374 1
374 1
371 1
370 1
367 1
366 1
365 1
365 1
363 1
363 1
362 1
361 1
360 1
358 1
357 1
356 1
353 1
353 1
352 1
352 1
350 1
350 1
346 1
345 1
343 1
343 1
342 1
338 1
336 1
335 1
335 1
334 1
333 1
330 1
330 1
329 1
329 1
328 1
326 1
324 1
323 1
321 1
320 1
320 1
319 1
317 1
315 1
315 1
314 1
313 1
313 1
312 1
312 1
312 1
310 1
310 1
309 1
308 1
307 1
307 1
307 1
305 1
304 1
304 1
301 1
301 1
300 1
300 1
300 1
299 1
299 1
299 1
297 1
297 1
297 1
297 1
295 1
295 1
294 1
294 1
293 1
293 1
291 1
290 1
289 1
289 1
288 1
287 1
286 1
285 1
285 1
283 1
283 1
283 1
282 1
281 1
280 1
279 1
279 1
279 1
279 1
278 1
276 1
276 1
276 1
276 1
276 1
275 1
275 1
274 1
274 1
274 1
273 1
273 1
273 1
273 1
271 1
270 1
270 1
270 1
269 1
268 1
268 1
268 1
267 1
267 1
265 1
265 1
264 1
263 1
263 1
263 1
263 1
262 1
262 1
261 1
261 1
260 1
260 1
260 1
260 1
259 1
259 1
259 1
259 1
259 1
258 1
258 1
258 1
257 1
257 1
255 1
255 1
255 1
254 1
254 1
254 1
253 1
253 1
253 1
252 1
252 1
252 1
252 1
252 1
252 1
252 1
252 1
252 1
251 1
251 1
251 1
250 1
250 1
250 1
250 1
250 1
